; Copyright (c) 2026 The RIINA Authors. All rights reserved.
; Auto-generated from 02_FORMAL/coq/Industries/IndustryMedia.v (23 validations)
; Generated by scripts/generate-full-stack.py
;
; Translation Validation for IndustryMedia
; Layer 9: Verifies compiler backend preserves formal semantics.
; Each assertion checks source IR ≡ target code for a proven property.

(set-logic QF_LIA)
(set-option :produce-models true)

; IR node representation
(declare-sort IRNode 0)
(declare-sort TargetNode 0)

; content_sensitivity: source semantics (matches Coq)
(declare-fun source_content_sensitivity () Bool)
(declare-fun target_content_sensitivity () Bool)
(assert (= source_content_sensitivity target_content_sensitivity))

; protection_strength: source semantics (matches Coq)
(declare-fun source_protection_strength () Bool)
(declare-fun target_protection_strength () Bool)
(assert (= source_protection_strength target_protection_strength))

; protection_adequate: source semantics (matches Coq)
(declare-fun source_protection_adequate () Bool)
(declare-fun target_protection_adequate () Bool)
(assert (= source_protection_adequate target_protection_adequate))

; ecp_all_controls: source semantics (matches Coq)
(declare-fun source_ecp_all_controls () Bool)
(declare-fun target_ecp_all_controls () Bool)
(assert (= source_ecp_all_controls target_ecp_all_controls))

; count_ecp_controls: source semantics (matches Coq)
(declare-fun source_count_ecp_controls () Bool)
(declare-fun target_count_ecp_controls () Bool)
(assert (= source_count_ecp_controls target_count_ecp_controls))

; dci_min_key_bits: source semantics (matches Coq)
(declare-fun source_dci_min_key_bits () Bool)
(declare-fun target_dci_min_key_bits () Bool)
(assert (= source_dci_min_key_bits target_dci_min_key_bits))

; viewing_duration: source semantics (matches Coq)
(declare-fun source_viewing_duration () Bool)
(declare-fun target_viewing_duration () Bool)
(assert (= source_viewing_duration target_viewing_duration))

; viewing_within_window: source semantics (matches Coq)
(declare-fun source_viewing_within_window () Bool)
(declare-fun target_viewing_within_window () Bool)
(assert (= source_viewing_within_window target_viewing_within_window))

; screener_count_valid: source semantics (matches Coq)
(declare-fun source_screener_count_valid () Bool)
(declare-fun target_screener_count_valid () Bool)
(assert (= source_screener_count_valid target_screener_count_valid))

; movielabs_ecp_compliance: translation preserves property (matches Coq: Theorem)
(declare-fun source_movielabs_ecp_compliance () Bool)
(declare-fun target_movielabs_ecp_compliance () Bool)
(assert (= source_movielabs_ecp_compliance target_movielabs_ecp_compliance))

; dci_security: translation preserves property (matches Coq: Theorem)
(declare-fun source_dci_security () Bool)
(declare-fun target_dci_security () Bool)
(assert (= source_dci_security target_dci_security))

; tpn_compliance: translation preserves property (matches Coq: Theorem)
(declare-fun source_tpn_compliance () Bool)
(declare-fun target_tpn_compliance () Bool)
(assert (= source_tpn_compliance target_tpn_compliance))

; forensic_watermark: translation preserves property (matches Coq: Theorem)
(declare-fun source_forensic_watermark () Bool)
(declare-fun target_forensic_watermark () Bool)
(assert (= source_forensic_watermark target_forensic_watermark))

; cdsa_compliance: translation preserves property (matches Coq: Theorem)
(declare-fun source_cdsa_compliance () Bool)
(declare-fun target_cdsa_compliance () Bool)
(assert (= source_cdsa_compliance target_cdsa_compliance))

; prerelease_maximum_protection: translation preserves property (matches Coq: Theorem)
(declare-fun source_prerelease_maximum_protection () Bool)
(declare-fun target_prerelease_maximum_protection () Bool)
(assert (= source_prerelease_maximum_protection target_prerelease_maximum_protection))

; watermark_persistence: translation preserves property (matches Coq: Theorem)
(declare-fun source_watermark_persistence () Bool)
(declare-fun target_watermark_persistence () Bool)
(assert (= source_watermark_persistence target_watermark_persistence))

; prerelease_highest_sensitivity: translation preserves property (matches Coq: Theorem)
(declare-fun source_prerelease_highest_sensitivity () Bool)
(declare-fun target_prerelease_highest_sensitivity () Bool)
(assert (= source_prerelease_highest_sensitivity target_prerelease_highest_sensitivity))

; postrelease_lowest_sensitivity: translation preserves property (matches Coq: Theorem)
(declare-fun source_postrelease_lowest_sensitivity () Bool)
(declare-fun target_postrelease_lowest_sensitivity () Bool)
(assert (= source_postrelease_lowest_sensitivity target_postrelease_lowest_sensitivity))

; content_sensitivity_positive: translation preserves property (matches Coq: Theorem)
(declare-fun source_content_sensitivity_positive () Bool)
(declare-fun target_content_sensitivity_positive () Bool)
(assert (= source_content_sensitivity_positive target_content_sensitivity_positive))

; hardware_strongest: translation preserves property (matches Coq: Theorem)
(declare-fun source_hardware_strongest () Bool)
(declare-fun target_hardware_strongest () Bool)
(assert (= source_hardware_strongest target_hardware_strongest))

; unencrypted_weakest: translation preserves property (matches Coq: Theorem)
(declare-fun source_unencrypted_weakest () Bool)
(declare-fun target_unencrypted_weakest () Bool)
(assert (= source_unencrypted_weakest target_unencrypted_weakest))

; hw_protects_any_content: translation preserves property (matches Coq: Theorem)
(declare-fun source_hw_protects_any_content () Bool)
(declare-fun target_hw_protects_any_content () Bool)
(assert (= source_hw_protects_any_content target_hw_protects_any_content))

; unencrypted_inadequate_for_prerelease: translation preserves property (matches Coq: Theorem)
(declare-fun source_unencrypted_inadequate_for_prerelease () Bool)
(declare-fun target_unencrypted_inadequate_for_prerelease () Bool)
(assert (= source_unencrypted_inadequate_for_prerelease target_unencrypted_inadequate_for_prerelease))

; postrelease_accepts_basic_drm: translation preserves property (matches Coq: Theorem)
(declare-fun source_postrelease_accepts_basic_drm () Bool)
(declare-fun target_postrelease_accepts_basic_drm () Bool)
(assert (= source_postrelease_accepts_basic_drm target_postrelease_accepts_basic_drm))

; ecp_all_requires_encryption: translation preserves property (matches Coq: Theorem)
(declare-fun source_ecp_all_requires_encryption () Bool)
(declare-fun target_ecp_all_requires_encryption () Bool)
(assert (= source_ecp_all_requires_encryption target_ecp_all_requires_encryption))

; ecp_all_requires_watermarking: translation preserves property (matches Coq: Theorem)
(declare-fun source_ecp_all_requires_watermarking () Bool)
(declare-fun target_ecp_all_requires_watermarking () Bool)
(assert (= source_ecp_all_requires_watermarking target_ecp_all_requires_watermarking))

; ecp_all_requires_no_copies: translation preserves property (matches Coq: Theorem)
(declare-fun source_ecp_all_requires_no_copies () Bool)
(declare-fun target_ecp_all_requires_no_copies () Bool)
(assert (= source_ecp_all_requires_no_copies target_ecp_all_requires_no_copies))

; count_ecp_bounded: translation preserves property (matches Coq: Theorem)
(declare-fun source_count_ecp_bounded () Bool)
(declare-fun target_count_ecp_bounded () Bool)
(assert (= source_count_ecp_bounded target_count_ecp_bounded))

; all_ecp_count_six: translation preserves property (matches Coq: Theorem)
(declare-fun source_all_ecp_count_six () Bool)
(declare-fun target_all_ecp_count_six () Bool)
(assert (= source_all_ecp_count_six target_all_ecp_count_six))

; dci_key_sufficient: translation preserves property (matches Coq: Theorem)
(declare-fun source_dci_key_sufficient () Bool)
(declare-fun target_dci_key_sufficient () Bool)
(assert (= source_dci_key_sufficient target_dci_key_sufficient))

; viewing_bounded: translation preserves property (matches Coq: Theorem)
(declare-fun source_viewing_bounded () Bool)
(declare-fun target_viewing_bounded () Bool)
(assert (= source_viewing_bounded target_viewing_bounded))

; screener_bounded: translation preserves property (matches Coq: Theorem)
(declare-fun source_screener_bounded () Bool)
(declare-fun target_screener_bounded () Bool)
(assert (= source_screener_bounded target_screener_bounded))

; Verify all translation validations are satisfiable
(check-sat)
(exit)
